NAME:	U:\RGorka\Probleme\orig\N100\nc109m.dat
DIMENSION:	53
CAPACITY:	200
MAX_ROUTE_DURATION:	1236
NODE_COORD_SECTION:
0	40.0	50.0
1	45.0	68.0
2	45.0	70.0
3	42.0	66.0
4	42.0	68.0
5	42.0	65.0
6	40.0	69.0
7	40.0	66.0
8	38.0	68.0
9	38.0	70.0
10	35.0	66.0
11	35.0	69.0
12	25.0	85.0
13	22.0	75.0
14	22.0	85.0
15	20.0	80.0
16	20.0	85.0
17	18.0	75.0
18	15.0	75.0
19	15.0	80.0
20	30.0	50.0
21	30.0	52.0
22	28.0	52.0
23	28.0	55.0
24	25.0	50.0
25	25.0	52.0
26	25.0	55.0
27	23.0	52.0
28	23.0	55.0
29	20.0	50.0
30	20.0	55.0
31	10.0	35.0
32	10.0	40.0
33	8.0	40.0
34	8.0	45.0
35	5.0	35.0
36	5.0	45.0
37	2.0	40.0
38	0.0	40.0
39	0.0	45.0
40	35.0	30.0
41	35.0	32.0
42	33.0	32.0
43	33.0	35.0
44	32.0	30.0
45	30.0	30.0
46	30.0	32.0
47	30.0	35.0
48	28.0	30.0
49	28.0	35.0
50	26.0	32.0
51	25.0	30.0
52	25.0	35.0
53	44.0	5.0
54	42.0	10.0
55	42.0	15.0
56	40.0	5.0
57	40.0	15.0
58	38.0	5.0
59	38.0	15.0
60	35.0	5.0
61	50.0	30.0
62	50.0	35.0
63	50.0	40.0
64	48.0	30.0
65	48.0	40.0
66	47.0	35.0
67	47.0	40.0
68	45.0	30.0
69	45.0	35.0
70	95.0	30.0
71	95.0	35.0
72	53.0	30.0
73	92.0	30.0
74	53.0	35.0
75	45.0	65.0
76	90.0	35.0
77	88.0	30.0
78	88.0	35.0
79	87.0	30.0
80	85.0	25.0
81	85.0	35.0
82	75.0	55.0
83	72.0	55.0
84	70.0	58.0
85	68.0	60.0
86	66.0	55.0
87	65.0	55.0
88	65.0	60.0
89	63.0	58.0
90	60.0	55.0
91	60.0	60.0
92	67.0	85.0
93	65.0	85.0
94	65.0	82.0
95	62.0	80.0
96	60.0	80.0
97	60.0	85.0
98	58.0	75.0
99	55.0	80.0
100	55.0	85.0
101	85.0	25.0
102	55.0	80.0
103	8.0	45.0
104	30.0	35.0
105	45.0	35.0
106	30.0	52.0
DEMAND_SECTION:
1	1	75	760	1120	90	770	1130	90	10	0
2	4	2	575	935	90	668	1028	90	10	0
3	5	3	15	375	90	16	376	90	10	0
4	7	8	18	378	90	110	470	90	20	0
5	9	6	390	750	90	482	842	90	10	0
6	10	11	204	564	90	297	657	90	10	0
7	13	17	30	390	90	33	393	90	30	0
8	14	12	414	774	90	507	867	90	10	0
9	15	16	227	587	90	322	682	90	40	0
10	18	19	37	397	90	132	492	90	20	0
11	20	24	10	370	90	15	375	90	10	0
12	21	106	760	1120	0	760	1120	90	20	0
13	23	22	575	935	90	668	1028	90	10	0
14	25	27	17	377	90	109	469	90	40	0
15	28	26	390	750	90	482	842	90	20	0
16	29	30	202	562	90	297	657	90	10	0
17	31	35	39	399	90	134	494	90	20	0
18	32	33	31	391	90	33	393	90	30	0
19	34	103	604	964	0	604	964	90	20	0
20	37	38	229	589	90	321	681	90	20	0
21	39	36	416	776	90	511	871	90	20	0
22	41	40	21	381	90	113	473	90	10	0
23	43	42	16	376	90	19	379	90	10	0
24	44	45	206	566	90	391	751	90	10	0
25	46	48	299	659	90	483	843	90	10	0
26	47	104	767	1127	0	767	1127	90	10	0
27	51	50	576	936	90	668	1028	90	10	0
28	52	49	761	1121	90	766	1126	90	10	0
29	54	53	42	402	90	137	497	90	40	0
30	56	58	231	591	90	323	683	90	30	0
31	57	55	35	395	90	35	395	90	40	0
32	60	59	416	776	90	516	876	90	20	0
33	61	64	391	751	90	483	843	90	10	0
34	63	62	15	375	90	110	470	90	50	0
35	67	65	12	372	90	12	372	90	10	0
36	68	66	576	936	90	671	1031	90	10	0
37	69	105	763	1123	0	763	1123	90	10	0
38	70	73	242	602	90	335	695	90	30	0
39	74	72	203	563	90	298	658	90	50	0
40	76	71	52	412	90	147	507	90	10	0
41	77	79	429	789	90	520	880	90	10	0
42	80	101	615	975	0	615	975	90	10	0
43	81	78	47	407	90	50	410	90	30	0
44	82	84	215	575	90	311	671	90	20	0
45	85	88	404	764	90	497	857	90	30	0
46	86	83	26	386	90	122	482	90	10	0
47	89	91	590	950	90	683	1043	90	10	0
48	90	87	20	380	90	25	385	90	10	0
49	92	93	225	585	90	317	677	90	20	0
50	95	94	38	398	90	131	491	90	30	0
51	97	100	412	772	90	507	867	90	30	0
52	98	96	30	390	90	36	396	90	20	0
53	99	102	602	962	0	602	962	90	10	0
EOF
